%chk=C:\Users\FQY\Desktop\+TNT\+TNT.chk
# hf/3-21g geom=connectivity

structure

0 1
 H                 36.49090000   54.85210000   62.31630000
 H                 34.83600000   54.67700000   63.85710000
 H                 35.43040000   53.64280000   65.40020000
 H                 38.27010000   55.17460000   62.72240000
 C                 37.93820000   53.50520000   64.76650000
 C                 36.93390000   54.24660000   64.12060000
 N                 39.36350000   53.92430000   64.71180000
 N                 37.53810000   52.30650000   65.61210000
 N                 35.57970000   54.15830000   64.46050000
 N                 37.21440000   55.05170000   62.98060000
 O                 39.78370000   54.57760000   63.67920000
 O                 36.25090000   52.20500000   65.81380000
 O                 38.41680000   51.39330000   65.72570000
 O                 40.14790000   53.63770000   65.67810000

 1 10 1.0
 2 9 1.0
 3 9 1.0
 4 10 1.0
 5 6 2.0 7 1.0 8 1.0
 6 9 1.0 10 1.0
 7 11 1.0 14 2.0
 8 12 2.0 13 1.0
 9
 10
 11
 12
 13
 14

