%chk=C:\Users\FQY\Desktop\+TNT\+TNT (2).chk
# hf/3-21g geom=connectivity

structure

0 1
 H                 36.20960000   53.69310000   36.61920000
 H                 37.99300000   53.92600000   37.21070000
 H                 34.65970000   53.06970000   38.05640000
 H                 35.20390000   52.58210000   39.84740000
 C                 36.60190000   53.33460000   38.57080000
 C                 37.63150000   53.16430000   39.60130000
 N                 36.93560000   53.86220000   37.33990000
 N                 35.36120000   52.79980000   38.77980000
 N                 37.15090000   53.03600000   40.98000000
 N                 39.06400000   53.34330000   39.31410000
 O                 39.47170000   53.87050000   38.17610000
 O                 35.90020000   52.83540000   41.31420000
 O                 38.06390000   53.28850000   41.87150000
 O                 39.88970000   52.97570000   40.21540000

 1 7 1.0
 2 7 1.0
 3 8 1.0
 4 8 1.0
 5 6 2.0 7 1.0 8 1.0
 6 9 1.0 10 1.0
 7
 8
 9 12 2.0 13 1.0
 10 11 1.0 14 2.0
 11
 12
 13
 14

