%chk=C:\Users\FQY\Desktop\+TNT\+TNT (4).chk
# hf/3-21g geom=connectivity

structure

0 1
 H                 56.63910000   52.59700000   45.60600000
 H                 58.36950000   53.23620000   46.36940000
 H                 54.88490000   52.80900000   47.03410000
 H                 55.17730000   53.62690000   48.69370000
 C                 56.78270000   53.41590000   47.55540000
 C                 57.55570000   54.22980000   48.45910000
 N                 57.33840000   52.91140000   46.37130000
 N                 55.44990000   53.10770000   47.87790000
 N                 59.04100000   54.32520000   48.33900000
 N                 56.87330000   54.83070000   49.61910000
 O                 59.59380000   55.01980000   49.26460000
 O                 59.72450000   53.53830000   47.55060000
 O                 55.77630000   55.43460000   49.36900000
 O                 57.29560000   54.54320000   50.83570000

 1 7 1.0
 2 7 1.0
 3 8 1.0
 4 8 1.0
 5 6 2.0 7 1.0 8 1.0
 6 9 1.0 10 1.0
 7
 8
 9 11 2.0 12 1.0
 10 13 1.0 14 2.0
 11
 12
 13
 14

