%chk=C:\Users\FQY\Desktop\+TNT\+TNT (5).chk
# hf/3-21g geom=connectivity

structure

0 1
 H                 45.13000000   52.51370000   31.78230000
 H                 44.65710000   51.98090000   33.64300000
 H                 47.14950000   53.46740000   31.69030000
 H                 48.46720000   53.00620000   32.92560000
 C                 46.62280000   52.34580000   33.21050000
 C                 47.07580000   52.07010000   34.52850000
 N                 45.26250000   52.25710000   32.81400000
 N                 46.10820000   52.22410000   35.61350000
 N                 47.63440000   52.80500000   32.31790000
 N                 48.54720000   51.88890000   34.90090000
 O                 44.84110000   52.11040000   35.32150000
 O                 46.55930000   52.48670000   36.79430000
 O                 48.74320000   51.03140000   35.82160000
 O                 49.48360000   52.43270000   34.21440000

 1 7 1.0
 2 7 1.0
 3 9 1.0
 4 9 1.0
 5 6 2.0 7 1.0 9 1.0
 6 8 1.0 10 1.0
 7
 8 11 2.0 12 1.0
 9
 10 13 1.0 14 2.0
 11
 12
 13
 14

