%chk=C:\Users\FQY\Desktop\new-inter-20\4.chk
# hf/3-21g geom=connectivity

structure

0 1
 H                 46.76800000   52.51100000   65.09200000
 H                 48.44500000   53.63300000   64.07100000
 H                 48.23800000   51.85400000   68.98300000
 H                 46.86700000   53.90100000   69.08200000
 H                 49.99600000   55.95400000   67.22100000
 H                 51.32700000   54.00400000   67.09300000
 C                 47.42300000   52.89100000   65.92400000
 C                 48.55700000   53.65900000   65.21700000
 C                 48.38600000   52.48700000   68.06800000
 C                 47.53900000   53.78000000   68.14100000
 C                 49.34600000   55.02700000   67.05000000
 C                 50.19500000   53.77900000   67.01000000
 N                 49.95700000   53.09800000   65.57900000
 N                 48.57300000   55.11300000   65.62900000
 N                 45.99300000   54.99600000   66.33500000
 N                 48.99200000   50.85100000   66.18200000
 N                 49.30800000   56.01000000   64.61600000
 N                 48.41800000   55.04500000   68.24000000
 N                 46.58000000   53.69300000   66.91500000
 N                 47.89700000   51.70500000   66.83000000
 N                 49.88600000   52.78900000   68.13600000
 N                 47.62900000   56.36400000   68.41200000
 N                 51.01100000   53.50500000   64.52900000
 N                 50.30700000   53.32400000   69.51700000
 O                 48.89400000   50.53700000   64.93200000
 O                 46.13800000   55.17600000   65.06600000
 O                 49.04600000   55.89100000   63.35900000
 O                 49.98100000   50.43700000   66.88500000
 O                 45.65400000   55.96300000   67.10300000
 O                 49.65900000   52.98800000   70.57600000
 O                 47.93400000   57.36300000   67.67800000
 O                 46.92300000   56.50600000   69.48400000
 O                 50.85400000   53.13000000   63.31800000
 O                 51.91600000   54.33700000   64.89600000
 O                 50.04800000   56.95800000   65.05500000
 O                 51.33800000   54.11100000   69.59400000

 1 7 1.0
 2 8 1.0
 3 9 1.0
 4 10 1.0
 5 11 1.0
 6 12 1.0
 7 8 1.0 19 1.0 20 1.0
 8 13 1.0 14 1.0
 9 10 1.0 20 1.0 21 1.0
 10 18 1.0 19 1.0
 11 12 1.0 14 1.0 18 1.0
 12 13 1.0 21 1.0
 13 23 1.0
 14 17 1.0
 15 19 1.0 26 1.0 29 2.0
 16 20 1.0 25 1.0 28 2.0
 17 27 1.0 35 2.0
 18 22 1.0
 19
 20
 21 24 1.0
 22 31 1.0 32 2.0
 23 33 1.0 34 2.0
 24 30 1.0 36 2.0
 25
 26
 27
 28
 29
 30
 31
 32
 33
 34
 35
 36

