#P B3LYP/6-31G* geom=connectivity

Generated by Multiwfn

  0  1
H      1.21556596   -3.00372768    0.25030720
H      3.05065221   -1.47842149    0.31797096
H      2.49463118    0.39270388    0.42340193
H     -0.49586306   -2.33043922   -0.15034937
C      1.00942685   -1.01005032    0.00396016
C     -0.00572159   -0.00157062   -0.06604045
N      2.35034414   -0.70104473    0.34625514
N      0.52512618   -2.30652374   -0.10131281
N     -1.48107639   -0.33936484    0.08073465
N      0.36865835    1.42303514   -0.18029570
O     -2.05743422    0.38310033    0.98282288
O     -2.03252401   -1.14618541   -0.73141735
O      1.63779243    1.80622754   -0.24073673
O     -0.62640719    2.20146971   -0.19648354
 
       1       8  0.6186
       2       7  0.6118
       3       7  0.4538
       4       8  0.6461
       5       6  1.3272       7  0.8915       8  1.0198
       6       9  0.5301      10  0.6332
       7
       8
       9      11  0.5784      12  0.6583
      10      13  0.4375      14  0.6963
      11
      12
      13
      14
