%chk=/home_gsx/users/nsgsx_ln//yzh/Compatibility/gaussian/CL-20/1/20.chk
%mem=8000MB
%nproc=12

# b3lyp/TZVP EmpiricalDispersion=GD3BJ

"20selected"

0 1
 H                 46.54200000   52.78900000   52.52400000
 H                 48.46200000   52.51400000   51.25100000
 H                 47.87100000   53.89200000   56.19800000
 H                 47.48600000   55.97600000   55.02600000
 H                 50.98200000   55.36500000   52.56400000
 H                 51.47400000   53.47500000   53.89900000
 C                 48.65600000   53.15800000   52.14900000
 C                 47.40200000   53.35800000   53.00700000
 C                 48.25000000   53.88900000   55.14700000
 C                 47.95100000   55.19300000   54.38000000
 C                 50.03300000   54.90700000   53.02900000
 C                 50.35500000   53.60800000   53.78300000
 N                 49.83200000   52.45400000   52.92200000
 N                 49.14900000   54.51400000   51.71600000
 N                 45.80400000   55.14900000   52.34800000
 N                 47.00300000   54.90700000   53.26800000
 N                 49.08800000   57.22000000   53.24400000
 N                 47.82400000   51.29600000   54.41900000
 N                 47.41700000   52.77800000   54.43100000
 N                 49.32900000   55.86500000   53.92300000
 N                 49.74200000   53.62800000   55.22000000
 N                 50.01200000   54.47200000   50.45900000
 N                 50.92700000   51.96500000   51.95700000
 N                 50.19000000   52.70600000   56.37100000
 O                 45.70500000   54.45800000   51.25500000
 O                 49.69400000   53.74200000   49.44200000
 O                 44.93200000   56.03500000   52.64200000
 O                 49.95500000   57.64300000   52.40700000
 O                 47.26900000   50.53200000   53.52300000
 O                 49.49500000   52.75000000   57.43900000
 O                 48.58700000   50.85900000   55.35200000
 O                 48.16600000   57.97400000   53.70900000
 O                 52.12000000   52.44000000   52.02100000
 O                 50.63700000   51.05700000   51.09700000
 O                 51.00400000   55.30500000   50.37400000
 O                 51.29500000   52.04300000   56.29700000



