#P B3LYP/6-31G* geom=connectivity

Generated by Multiwfn

  0  1
H      0.29915529   -0.84319348    2.56254523
H      0.15486543    1.40008427    1.98857713
H     -1.22006535   -2.84011505   -0.62891193
H      1.16124262   -2.71498420   -1.05149875
H      0.88904807    1.49723708   -1.96795003
H     -1.46120083    1.28327559   -1.80381718
C      0.11844337    0.74279045    1.08005402
C      0.21447081   -0.74589241    1.43116950
C     -0.78121677   -1.83554663   -0.41326128
C      0.74520971   -1.77157154   -0.62310739
C      0.58260127    0.63721453   -1.26578084
C     -0.94025478    0.59666931   -1.06863485
N     -1.21898962    1.12233915    0.34294019
N      1.25614325    1.07996299    0.15203050
N      2.47670359   -1.72627342    1.77281540
N      1.41554263   -1.53882184    0.68590955
N      2.58010115   -0.65264072   -2.06295503
N     -2.28951261   -1.02338208    1.70818667
N     -1.00541950   -1.62838312    1.11895359
N      1.07909459   -0.68067332   -1.74461484
N     -1.49776342   -0.84308210   -1.30829707
N      1.62101267    2.56099270    0.15384775
N     -1.43395439    2.64628674    0.31564767
N     -2.97714584   -1.16796343   -1.59372441
O      2.55032534   -0.85601307    2.73154256
O      1.69290583    3.24050068    1.24993774
O      3.29049791   -2.70946572    1.71907781
O      3.08380428    0.42742723   -2.52221898
O     -2.23375803   -0.57988652    2.93078232
O     -3.29276105   -2.40284201   -1.62608084
O     -3.37221817   -1.09067999    1.02492488
O      3.21496248   -1.76231761   -2.08278632
O     -1.47408521    3.28491672   -0.79948069
O     -1.59429587    3.27110378    1.42562888
O      2.00475890    3.09438662   -0.96570920
O     -3.80754321   -0.23748226   -1.92646305
 
       1       8  0.7575
       2       7  0.7854
       3       9  0.8033
       4      10  0.8061
       5      11  0.7201
       6      12  0.7616
       7       8  0.9896      13  0.3740      14  0.5711
       8      16  0.3110      19  0.4890
       9      10  0.9800      19  0.4027      21  0.5192
      10      16  0.4625      20  0.3337
      11      12  0.9772      14  0.2606      20  0.6421
      12      13  0.5045      21  0.3915
      13      23  0.2334
      14      22  0.2633
      15      16  0.1920      25  0.5410      27  0.6355
      16
      17      20  0.2512      28  0.6288      32  0.6274
      18      19  0.2424      29  0.5277      31  0.6122
      19
      20
      21      24  0.2200
      22      26  0.5701      35  0.5484
      23      33  0.5966      34  0.6038
      24      30  0.6359      36  0.5650
      25
      26
      27
      28
      29
      30
      31
      32
      33
      34
      35
      36
