#P B3LYP/6-31G* geom=connectivity

Generated by Multiwfn

  0  1
H      2.91821384    1.65977454    0.28437863
H      2.50908828   -0.27657432    0.51434414
H      1.26226831    2.72843741   -0.77022652
H     -0.49525679    2.12548967   -0.62001214
C      0.96276814    0.99715148    0.10118394
C     -0.02407003   -0.02479630    0.11198436
N      2.34058581    0.75969000    0.34761148
N      0.42347776   -1.38875452   -0.16461952
N      0.47853423    2.28757047   -0.26112854
N     -1.52829088    0.24651556    0.12756143
O      1.67097040   -1.68319717    0.08195651
O     -0.43327670   -2.21864123   -0.65858152
O     -2.19797564   -0.60537749    0.79630002
O     -2.01804942    1.33141477   -0.34885849
 
       1       7  0.5639
       2       7  0.5100
       3       9  0.6407
       4       9  0.5709
       5       6  1.3922       7  0.8959       9  0.8841
       6       8  0.6924      10  0.4999
       7
       8      11  0.5192      12  0.5738
       9
      10      13  0.6597      14  0.6160
      11
      12
      13
      14
