#P B3LYP/6-31G* geom=connectivity

Generated by Multiwfn

  0  1
H      1.15515572   -2.07400926   -1.28015720
H      1.15645357    0.52608752    2.08311532
H     -0.23289810    3.25793122   -0.96289025
H      0.80049991   -0.53003291   -2.95163717
H     -2.28682380    1.93664530   -1.31080081
H     -0.95910995   -0.45723204    2.06860169
C      0.81825512   -1.03872115   -0.89730540
C      0.76409522    0.51524165    1.01184398
C     -0.05724105    2.07350563   -0.83065708
C      0.36506890   -0.14097347   -1.99934594
C     -1.37851519    1.31726984   -0.91576346
C     -0.59380823   -0.15305002    1.04417748
N      1.80164779   -0.41777097   -0.03398637
N      2.79472416   -1.34984059    0.66384924
N      0.63473999    1.93127548    0.63795036
N     -0.17198166    2.70286238    1.69781018
N      0.89470895    1.55666086   -1.88732764
N      2.34926398    1.64689363   -1.49247106
N     -1.06749446    0.11877796   -2.03723273
N     -1.89014518   -1.16726261   -2.00934988
N     -1.70874840    0.72511033    0.52821546
N     -3.07830820    0.02971303    0.59591017
N     -0.43157918   -1.38909730    0.24056136
N     -0.00975534   -2.51684596    1.19229904
O      3.02535586   -1.20074248    1.90839727
O      3.46780170   -2.21306075   -0.03831853
O     -0.77650147    3.79645428    1.37154872
O     -0.42326930    2.10204785    2.81025677
O      2.84015353    2.62546166   -0.79782075
O      3.14588196    0.71981892   -1.90244823
O     -3.16985633   -1.06057579   -2.06901801
O     -1.28945712   -2.30937771   -1.84099921
O     -3.27690317   -1.01857283    1.32028217
O     -4.08187733    0.51793684   -0.03699622
O     -0.06709477   -2.30170806    2.44890434
O      0.61077730   -3.55672671    0.72652092
 
       1       7  0.7173
       2       8  0.7388
       3       9  0.6451
       4      10  0.8067
       5      11  0.7158
       6      12  0.7512
       7      10  1.1588      13  0.7505
       8      12  1.0383      15  0.6911
       9      11  1.0674      15  0.2745      17  0.5841
      10      19  0.7570
      11      19  0.1821      21  0.3514
      12      21  0.5372      23  0.6224
      13      14  0.2490
      14      25  0.6475      26  0.5313
      15      16  0.2342
      16      27  0.5716      28  0.5885
      17      18  0.3164
      18      29  0.5382      30  0.5876
      19      20  0.2583
      20      31  0.5918      32  0.5231
      21      22  0.2397
      22      33  0.5705      34  0.6046
      23      24  0.2352
      24      35  0.6371      36  0.5430
      25
      26
      27
      28
      29
      30
      31
      32
      33
      34
      35
      36
