#P B3LYP/6-31G* geom=connectivity

Generated by Multiwfn

  0  1
H     -2.45867385    0.46391832   -0.64021576
H     -2.26420517    2.28133270   -0.39733087
H      1.01144914    1.97869962    0.90458389
H     -0.41145678    3.16593366    0.47844416
C      0.04019250   -0.08592999   -0.02918744
C     -0.58743191    1.19612917   -0.06671771
N     -0.83638453   -1.27859748    0.08576998
N      1.55966726   -0.13909958   -0.20897028
N     -1.95541748    1.31165078   -0.39319494
N      0.16607631    2.29203980    0.35029097
O     -0.28001639   -2.31896128    0.60843587
O      2.04444002   -1.22287389   -0.61871119
O      2.19908135    0.89381842    0.23702634
O     -2.10491345   -1.08361248   -0.05266609
 
       1       9  0.6253
       2       9  0.6770
       3      10  0.5469
       4      10  0.6043
       5       6  1.3653       7  0.6166       8  0.4963
       6       9  0.9161      10  0.9995
       7      11  0.5800      14  0.5674
       8      12  0.7261      13  0.5556
       9
      10
      11
      12
      13
      14
