%chk=C:\Users\FQY\Desktop\inter-20\2.chk
# hf/3-21g geom=connectivity

structure

0 1
 H                 44.38800000   51.69000000   32.13700000
 H                 46.80600000   55.01200000   32.01900000
 H                 43.46500000   56.34300000   34.22600000
 H                 42.58700000   52.36500000   33.37800000
 H                 44.02800000   55.01800000   36.14700000
 H                 47.52700000   53.84000000   34.03800000
 C                 44.64600000   52.58500000   32.75100000
 C                 45.96000000   54.60400000   32.66400000
 C                 43.98700000   55.38700000   33.97000000
 C                 43.43800000   53.06600000   33.58100000
 C                 44.38900000   54.58600000   35.17500000
 C                 46.42300000   53.83100000   33.93300000
 N                 45.07700000   53.60800000   31.76700000
 N                 45.98000000   52.94900000   30.69000000
 N                 45.26000000   55.83600000   33.08800000
 N                 46.19400000   56.85300000   33.76300000
 N                 42.92400000   54.57700000   33.29300000
 N                 42.61500000   54.94600000   31.82000000
 N                 43.62900000   53.11000000   35.03300000
 N                 42.26100000   53.14000000   35.70400000
 N                 45.91500000   54.37200000   35.26200000
 N                 46.36800000   53.41700000   36.37700000
 N                 45.91100000   52.39000000   33.68900000
 N                 46.97500000   51.54700000   32.95200000
 O                 47.10600000   53.50400000   30.42200000
 O                 45.54000000   51.97000000   29.99500000
 O                 45.76100000   57.87500000   34.42000000
 O                 47.42400000   56.85000000   33.38600000
 O                 43.42600000   55.76200000   31.23500000
 O                 41.83300000   54.21100000   31.14800000
 O                 42.06300000   54.01800000   36.64100000
 O                 41.27900000   52.37700000   35.37300000
 O                 47.49600000   52.83100000   36.31700000
 O                 45.53600000   53.19100000   37.34100000
 O                 48.23900000   51.81900000   32.98200000
 O                 46.56300000   50.43400000   32.43400000

 1 7 1.0
 2 8 1.0
 3 9 1.0
 4 10 1.0
 5 11 1.0
 6 12 1.0
 7 10 1.0 13 1.0 23 1.0
 8 12 1.0 13 1.0 15 1.0
 9 11 1.0 15 1.0 17 1.0
 10 17 1.0 19 1.0
 11 19 1.0 21 1.0
 12 21 1.0 23 1.0
 13 14 1.0
 14 25 1.0 26 2.0
 15 16 1.0
 16 27 1.0 28 2.0
 17 18 1.0
 18 29 1.0 30 2.0
 19 20 1.0
 20 31 1.0 32 2.0
 21 22 1.0
 22 33 1.0 34 2.0
 23 24 1.0
 24 35 1.0 36 2.0
 25
 26
 27
 28
 29
 30
 31
 32
 33
 34
 35
 36

