%chk=C:\Users\FQY\Desktop\inter-20\5.chk
# hf/3-21g geom=connectivity

structure

0 1
 H                 59.89700000   55.95000000   47.71000000
 H                 61.78000000   56.66300000   51.36200000
 H                 59.24400000   53.47700000   52.29800000
 H                 58.47800000   54.24800000   48.08200000
 H                 57.26600000   54.93800000   52.04900000
 H                 59.91700000   58.19900000   51.03900000
 C                 59.80300000   55.85300000   48.77500000
 C                 60.83500000   56.16600000   50.92500000
 C                 59.28000000   54.22900000   51.45400000
 C                 58.85400000   54.71800000   49.07900000
 C                 58.11900000   55.22200000   51.33100000
 C                 59.66900000   57.15100000   50.73300000
 N                 61.18600000   55.64300000   49.49600000
 N                 62.24900000   56.53300000   48.86900000
 N                 60.62500000   55.03400000   51.88400000
 N                 60.62000000   55.51900000   53.33600000
 N                 59.46100000   53.54400000   50.12600000
 N                 60.84900000   53.05500000   49.76200000
 N                 57.60300000   55.06500000   49.85100000
 N                 56.58600000   53.93600000   49.86700000
 N                 58.55300000   56.68700000   51.67500000
 N                 57.35800000   57.61900000   51.54800000
 N                 59.22400000   57.16400000   49.23100000
 N                 59.71500000   58.44700000   48.50700000
 O                 63.03200000   57.13300000   49.69500000
 O                 62.20500000   56.82500000   47.63100000
 O                 59.99300000   54.74600000   54.17400000
 O                 61.51300000   56.34100000   53.71800000
 O                 61.51900000   52.52500000   50.72800000
 O                 61.35400000   53.34000000   48.59100000
 O                 55.85100000   53.88800000   50.94900000
 O                 56.39800000   53.10900000   48.90700000
 O                 57.57100000   58.86200000   51.28300000
 O                 56.15300000   57.13100000   51.65600000
 O                 59.88800000   59.55000000   49.13300000
 O                 60.03500000   58.37800000   47.27600000

 1 7 1.0
 2 8 1.0
 3 9 1.0
 4 10 1.0
 5 11 1.0
 6 12 1.0
 7 10 1.0 13 1.0 23 1.0
 8 12 1.0 13 1.0 15 1.0
 9 11 1.0 15 1.0 17 1.0
 10 17 1.0 19 1.0
 11 19 1.0 21 1.0
 12 21 1.0 23 1.0
 13 14 1.0
 14 25 1.0 26 2.0
 15 16 1.0
 16 27 1.0 28 2.0
 17 18 1.0
 18 29 1.0 30 2.0
 19 20 1.0
 20 31 1.0 32 2.0
 21 22 1.0
 22 33 1.0 34 2.0
 23 24 1.0
 24 35 1.0 36 2.0
 25
 26
 27
 28
 29
 30
 31
 32
 33
 34
 35
 36

