%chk=/home_gsx/users/nsgsx_ln//yzh/Compatibility/gaussian/CL-20/4/20.chk
%mem=8000MB
%nproc=12

# b3lyp/TZVP EmpiricalDispersion=GD3BJ

"20selected"

0 1
 H                 46.76800000   52.51100000   65.09200000
 H                 48.44500000   53.63300000   64.07100000
 H                 48.23800000   51.85400000   68.98300000
 H                 46.86700000   53.90100000   69.08200000
 H                 49.99600000   55.95400000   67.22100000
 H                 51.32700000   54.00400000   67.09300000
 C                 47.42300000   52.89100000   65.92400000
 C                 48.55700000   53.65900000   65.21700000
 C                 48.38600000   52.48700000   68.06800000
 C                 47.53900000   53.78000000   68.14100000
 C                 49.34600000   55.02700000   67.05000000
 C                 50.19500000   53.77900000   67.01000000
 N                 49.95700000   53.09800000   65.57900000
 N                 48.57300000   55.11300000   65.62900000
 N                 45.99300000   54.99600000   66.33500000
 N                 48.99200000   50.85100000   66.18200000
 N                 49.30800000   56.01000000   64.61600000
 N                 48.41800000   55.04500000   68.24000000
 N                 46.58000000   53.69300000   66.91500000
 N                 47.89700000   51.70500000   66.83000000
 N                 49.88600000   52.78900000   68.13600000
 N                 47.62900000   56.36400000   68.41200000
 N                 51.01100000   53.50500000   64.52900000
 N                 50.30700000   53.32400000   69.51700000
 O                 48.89400000   50.53700000   64.93200000
 O                 46.13800000   55.17600000   65.06600000
 O                 49.04600000   55.89100000   63.35900000
 O                 49.98100000   50.43700000   66.88500000
 O                 45.65400000   55.96300000   67.10300000
 O                 49.65900000   52.98800000   70.57600000
 O                 47.93400000   57.36300000   67.67800000
 O                 46.92300000   56.50600000   69.48400000
 O                 50.85400000   53.13000000   63.31800000
 O                 51.91600000   54.33700000   64.89600000
 O                 50.04800000   56.95800000   65.05500000
 O                 51.33800000   54.11100000   69.59400000






