#P B3LYP/6-31G* geom=connectivity

Generated by Multiwfn

  0  1
H      0.72952989   -0.74092827    2.84108678
H      1.35458944   -2.01741788    1.08224374
H      0.09152437    3.05577710    1.13509519
H     -2.10640676    1.94164269    1.22143330
H     -0.93356714   -0.38174670   -2.04890002
H      1.18998061    0.65350919   -2.14499990
C      0.41805636   -0.16337030    1.92727058
C      0.84235109   -1.04544894    0.73666559
C      0.17793600    1.96600402    0.88064351
C     -1.20522229    1.27308989    0.91711487
C     -0.56234245   -0.11423519   -0.99928113
C      0.77490617    0.58366577   -1.06714410
N      1.80859902   -0.30477418   -0.22433953
N     -0.35056842   -1.44533778   -0.10068019
N     -2.00267848   -1.04835049    1.96848835
N      2.54511518    1.27077854    1.59747840
N     -0.08219104   -2.69492467   -0.95946373
N     -1.65108581    0.79303998   -0.48053487
N     -1.06888312    0.17815349    2.01841044
N      1.05249326    1.26816950    1.94434723
N      0.74561019    2.02087948   -0.54082147
N     -3.06881224    0.17674747   -0.52637493
N      2.60459318   -1.29990851   -1.09334238
N     -0.06458965    2.96099436   -1.45207733
O      3.31373624    0.36073908    2.09922520
O     -1.43431999   -2.20510194    2.02026394
O      0.46699925   -3.72847358   -0.41814989
O      3.02339937    2.18329086    0.83439814
O     -3.22366509   -0.93017375    1.60098330
O     -0.69497770    3.96854114   -0.96040530
O     -3.23761753   -0.93237179   -1.13558856
O     -4.06621015    0.94230635   -0.23158515
O      3.36456905   -2.15129332   -0.51942985
O      2.34145791   -1.32568441   -2.34874408
O     -0.54908673   -2.73633033   -2.15081548
O     -0.08840642    2.72488443   -2.72955291
 
       1       7  0.7905
       2       8  0.7270
       3       9  0.7878
       4      10  0.7160
       5      11  0.7347
       6      12  0.7121
       7       8  0.9603      19  0.5226      20  0.4279
       8      13  0.4255      14  0.5503
       9      10  0.9526      20  0.4776      21  0.4980
      10      18  0.4583      19  0.3999
      11      12  1.0693      14  0.2778      18  0.5601
      12      13  0.3314      21  0.5062
      13      23  0.2307
      14      17  0.2310
      15      19  0.2364      26  0.5767      29  0.6077
      16      20  0.2654      25  0.5622      28  0.6072
      17      27  0.5749      35  0.6184
      18      22  0.2244
      19
      20
      21      24  0.2317
      22      31  0.6319      32  0.5679
      23      33  0.6220      34  0.6071
      24      30  0.5863      36  0.5424
      25
      26
      27
      28
      29
      30
      31
      32
      33
      34
      35
      36
