%chk=C:\Users\FQY\Desktop\RDX+TNT-IGM\IGMH-in\4326.chk
# hf/3-21g geom=connectivity

"Created by VESTA"

0 1
 H                 42.38800000   47.84200000   37.86800000
 H                 40.74700000   48.71900000   37.74600000
 H                 41.34100000   47.77400000   36.43600000
 H                 37.36200000   45.38600000   38.70600000
 H                 41.21300000   43.68600000   39.95300000
 H                 44.76600000   44.12200000   35.46400000
 H                 43.86300000   45.47700000   35.91000000
 H                 45.29800000   45.11000000   36.85900000
 H                 48.51600000   45.85700000   32.74100000
 H                 45.96500000   49.36300000   33.98400000
 H                 49.99000000   49.83500000   38.06000000
 H                 49.32000000   48.56000000   36.94600000
 H                 49.01600000   50.33800000   36.70700000
 H                 45.04100000   47.50400000   38.57700000
 H                 46.07200000   51.24800000   40.76900000
 H                 50.77300000   52.26400000   31.90200000
 H                 49.80300000   50.86600000   32.49500000
 H                 50.71600000   51.87600000   33.70100000
 H                 54.47800000   49.76700000   30.16900000
 H                 53.37800000   47.43300000   33.73500000
 H                 46.29800000   53.40900000   39.41000000
 H                 44.87000000   52.58100000   38.81600000
 H                 45.69100000   56.03400000   36.41200000
 H                 47.05800000   55.60900000   37.53200000
 H                 48.28100000   53.30400000   37.24400000
 H                 47.83500000   52.22400000   35.85200000
 C                 40.56500000   46.54600000   38.23500000
 C                 39.15000000   46.59400000   38.26600000
 C                 38.45900000   45.48200000   38.84300000
 C                 39.23400000   44.46200000   39.46700000
 C                 40.65800000   44.54900000   39.47500000
 C                 41.40300000   45.53000000   38.80200000
 C                 41.31400000   47.74600000   37.56500000
 C                 45.83600000   46.04300000   34.81500000
 C                 47.12700000   45.56300000   34.39100000
 C                 47.70300000   46.35700000   33.31300000
 C                 47.42400000   47.76700000   33.21100000
 C                 46.28300000   48.29300000   33.95700000
 C                 45.42500000   47.39700000   34.64400000
 C                 44.95900000   45.17700000   35.80100000
 C                 47.83000000   49.54000000   38.39100000
 C                 46.94300000   48.43000000   38.09200000
 C                 45.72900000   48.37500000   38.82100000
 C                 45.30700000   49.43500000   39.68700000
 C                 46.26100000   50.45500000   40.02200000
 C                 47.54200000   50.51900000   39.36100000
 C                 49.09100000   49.54200000   37.49300000
 C                 52.01000000   50.41700000   32.47400000
 C                 52.82400000   50.62100000   31.35000000
 C                 53.84400000   49.63500000   31.09600000
 C                 54.15200000   48.57800000   31.97500000
 C                 53.26000000   48.36400000   33.08400000
 C                 52.11000000   49.21300000   33.23700000
 C                 50.77900000   51.40000000   32.62000000
 C                 45.72200000   53.20900000   38.48700000
 C                 46.17800000   55.14500000   36.90700000
 C                 47.37500000   52.94500000   36.61600000
 N                 38.31700000   47.72700000   37.72000000
 N                 38.47300000   43.31400000   40.09500000
 N                 42.93300000   45.53300000   38.92000000
 N                 47.89500000   44.53000000   35.08700000
 N                 48.17600000   48.61500000   32.20800000
 N                 44.16200000   47.83800000   35.41600000
 N                 47.28000000   47.19100000   37.29000000
 N                 43.84000000   49.75700000   39.99000000
 N                 48.46300000   51.69300000   39.64100000
 N                 52.69900000   51.83600000   30.38600000
 N                 55.28200000   47.63200000   31.59400000
 N                 51.04300000   48.83100000   34.20700000
 N                 46.54600000   52.24700000   37.66700000
 N                 45.36000000   54.59100000   37.99500000
 N                 46.84100000   54.17000000   35.94800000
 N                 45.65700000   51.18400000   36.99000000
 N                 43.84900000   54.82900000   37.78900000
 N                 45.82600000   53.73900000   34.87000000
 O                 37.48700000   48.25500000   38.55500000
 O                 38.26200000   47.84200000   36.44500000
 O                 37.21600000   43.37500000   40.22200000
 O                 39.13600000   42.23600000   40.44100000
 O                 43.73000000   45.02000000   38.05700000
 O                 43.35400000   45.81900000   40.07900000
 O                 47.37400000   43.33700000   35.05400000
 O                 49.00300000   44.80300000   35.66800000
 O                 49.40200000   48.40900000   31.91100000
 O                 47.58300000   49.65400000   31.73400000
 O                 44.15500000   47.53200000   36.64500000
 O                 43.09100000   48.21000000   34.80400000
 O                 46.84100000   46.08800000   37.72900000
 O                 47.88300000   47.40900000   36.15400000
 O                 42.94000000   48.93500000   39.62900000
 O                 43.57200000   50.90600000   40.48600000
 O                 47.96600000   52.60400000   40.40300000
 O                 49.65600000   51.64300000   39.21200000
 O                 51.58000000   51.99300000   29.82500000
 O                 53.73300000   52.58300000   30.30500000
 O                 56.25500000   48.08500000   30.86900000
 O                 55.13200000   46.42800000   31.92900000
 O                 51.02800000   47.57900000   34.60700000
 O                 50.25200000   49.73000000   34.62500000
 O                 46.16900000   50.41900000   36.07100000
 O                 44.44100000   51.02100000   37.36300000
 O                 43.46300000   55.84600000   37.14100000
 O                 42.96400000   54.14300000   38.43800000
 O                 44.61100000   54.11900000   34.87000000
 O                 46.26500000   52.96100000   33.90000000

 1 33 1.0
 2 33 1.0
 3 33 1.0
 4 29 1.0
 5 31 1.0
 6 40 1.0
 7 40 1.0
 8 40 1.0
 9 36 1.0
 10 38 1.0
 11 47 1.0
 12 47 1.0
 13 47 1.0
 14 43 1.0
 15 45 1.0
 16 54 1.0
 17 54 1.0
 18 54 1.0
 19 50 1.0
 20 52 1.0
 21 55 1.0
 22 55 1.0
 23 56 1.0
 24 56 1.0
 25 57 1.0
 26 57 1.0
 27 28 1.0 32 1.0 33 1.0
 28 29 1.0 58 1.0
 29 30 1.0
 30 31 1.0 59 1.0
 31 32 1.0
 32 60 1.0
 33
 34 35 1.0 39 1.0 40 1.0
 35 36 1.0 61 1.0
 36 37 1.0
 37 38 1.0 62 1.0
 38 39 1.0
 39 63 1.0
 40
 41 47 1.0 42 1.0 46 1.0
 42 64 1.0 43 1.0
 43 44 1.0
 44 45 1.0 65 1.0
 45 46 1.0
 46 66 1.0
 47
 48 49 1.0 53 1.0 54 1.0
 49 50 1.0 67 1.0
 50 51 1.0
 51 52 1.0 68 1.0
 52 53 1.0
 53 69 1.0
 54
 55 70 1.0 71 1.0
 56 71 1.0 72 1.0
 57 70 1.0 72 1.0
 58 77 1.0 76 1.0
 59 79 1.0 78 1.0
 60 80 1.0 81 1.0
 61 82 1.0 83 1.0
 62 84 1.0 85 1.0
 63 86 1.0 87 1.0
 64 89 1.0 88 1.0
 65 90 1.0 91 1.0
 66 92 1.0 93 1.0
 67 94 1.0 95 1.0
 68 96 1.0 97 1.0
 69 98 1.0 99 1.0
 70 73 1.0
 71 74 1.0
 72 75 1.0
 73 100 1.0 101 1.0
 74 102 1.0 103 1.0
 75 104 1.0 105 1.0
 76
 77
 78
 79
 80
 81
 82
 83
 84
 85
 86
 87
 88
 89
 90
 91
 92
 93
 94
 95
 96
 97
 98
 99
 100
 101
 102
 103
 104
 105

