%chk=C:\Users\FQY\Desktop\relax\relax (2).chk
# hf/3-21g geom=connectivity

structure

0 1
 H                 57.80350000   61.36530000   57.67560000
 H                 59.18000000   61.51450000   58.89330000
 H                 60.94160000   58.74530000   57.57240000
 H                 60.89970000   60.09170000   58.91450000
 C                 58.99300000   59.49370000   56.26060000
 C                 59.48460000   60.14860000   57.43040000
 N                 57.52980000   59.53370000   56.01260000
 N                 60.02000000   58.88580000   55.30160000
 N                 58.70020000   61.12080000   58.08680000
 N                 60.69520000   59.70040000   57.95600000
 O                 57.06990000   58.56770000   55.29120000
 O                 59.65670000   58.72370000   54.11030000
 O                 61.10300000   58.45380000   55.86300000
 O                 56.83380000   60.31950000   56.76390000

 1 9 1.0
 2 9 1.0
 3 10 1.0
 4 10 1.0
 5 6 2.0 7 1.0 8 1.0
 6 9 1.0 10 1.0
 7 11 1.0 14 2.0
 8 12 2.0 13 1.0
 9
 10
 11
 12
 13
 14

