#P B3LYP/6-31G* geom=connectivity

Generated by Multiwfn

  0  1
H     -1.35486512   -1.85322285   -0.73376956
H     -3.07914395    0.90586333    0.14534118
H     -3.01198193   -0.95117459   -0.75552630
H     -1.51177104    2.12995967    0.52361707
C      0.03464090   -0.01186102   -0.08360782
C     -1.38189362    0.05790303   -0.11396559
N     -2.07522888    1.23081480    0.17128843
N      0.86450184    1.25665122   -0.05315329
N      0.74924321   -1.31654566    0.09394128
N     -2.08045484   -1.17043009   -0.38524634
O      0.07412190   -2.28896085    0.60982206
O      0.18213073    2.34316457    0.21595297
O      2.10579425    1.18528507   -0.19528275
O      1.99230924   -1.30337749   -0.22824634
 
       1      10  0.5824
       2       7  0.5964
       3      10  0.6602
       4       7  0.4212
       5       6  1.4053       8  0.5251       9  0.5874
       6       7  1.0005      10  0.8354
       7
       8      12  0.4962      13  0.7476
       9      11  0.5649      14  0.5997
      10
      11
      12
      13
      14
